74431
1 0 1 0 0 1 0 0 0 1 0 0 1 0 0 0 0 1 1 0 0 0 1 1 0 0 0 1 1 0 
9 9 22 0 2 22 2 27 2 28 17 17 28 23 28 28 23 0 27 17 18 22 23 27 12 22 2 9 23 5 5 22 22 27 0 12 0 17 22 2 28 12 17 9 17 23 5 22 23 2 28 17 28 12 5 5 12 22 2 27 12 9 22 0 23 0 17 17 22 23 27 27 27 23 28 5 12 12 0 2 9 5 27 22 5 2 27 5 27 5 28 27 12 17 0 5 17 28 0 28 9 18 17 23 2 28 2 0 22 28 9 27 2 9 22 9 17 27 23 23 0 28 22 2 27 0 12 18 9 17 0 2 17 27 23 9 2 17 22 22 17 9 9 27 17 0 22 28 0 17 5 5 0 23 9 23 22 27 28 9 17 27 5 27 0 28 12 23 23 23 28 17 17 27 12 12 12 2 12 0 2 2 0 28 9 0 28 0 5 5 9 5 9 9 0 12 12 5 22 12 
